<?xml version = "1.0" standalone="yes"?>
<!-- This file has been generated by DOcplex version 2.23.222  -->
<CPLEXSolution version="1.0">
 <header
   problemName="CVRP"
   objectiveValue="14145.8"
  />
 <variables>
  <variable name="x_0_1" index="0" value="1.00000"/>
  <variable name="x_0_3" index="2" value="1.00000"/>
  <variable name="x_0_5" index="4" value="1.00000"/>
  <variable name="x_0_6" index="5" value="1.00000"/>
  <variable name="x_0_7" index="6" value="1.00000"/>
  <variable name="x_0_9" index="8" value="1.00000"/>
  <variable name="x_0_10" index="9" value="1.00000"/>
  <variable name="x_0_12" index="11" value="1.00000"/>
  <variable name="x_0_14" index="13" value="1.00000"/>
  <variable name="x_0_15" index="14" value="1.00000"/>
  <variable name="x_0_19" index="18" value="1.00000"/>
  <variable name="x_0_20" index="19" value="1.00000"/>
  <variable name="x_0_21" index="20" value="1.00000"/>
  <variable name="x_0_22" index="21" value="1.00000"/>
  <variable name="x_0_23" index="22" value="1.00000"/>
  <variable name="x_0_24" index="23" value="1.00000"/>
  <variable name="x_0_28" index="27" value="1.00000"/>
  <variable name="x_1_0" index="28" value="1.00000"/>
  <variable name="x_2_0" index="56" value="1.00000"/>
  <variable name="x_3_25" index="108" value="1.00000"/>
  <variable name="x_4_0" index="112" value="1.00000"/>
  <variable name="x_5_8" index="147" value="1.00000"/>
  <variable name="x_6_16" index="183" value="1.00000"/>
  <variable name="x_7_18" index="213" value="1.00000"/>
  <variable name="x_8_0" index="224" value="1.00000"/>
  <variable name="x_9_0" index="252" value="1.00000"/>
  <variable name="x_10_0" index="280" value="1.00000"/>
  <variable name="x_11_27" index="334" value="1.00000"/>
  <variable name="x_12_13" index="348" value="1.00000"/>
  <variable name="x_13_0" index="364" value="1.00000"/>
  <variable name="x_14_26" index="417" value="1.00000"/>
  <variable name="x_15_0" index="420" value="1.00000"/>
  <variable name="x_16_0" index="448" value="1.00000"/>
  <variable name="x_17_0" index="476" value="1.00000"/>
  <variable name="x_18_0" index="504" value="1.00000"/>
  <variable name="x_19_4" index="536" value="1.00000"/>
  <variable name="x_20_0" index="560" value="1.00000"/>
  <variable name="x_21_11" index="599" value="1.00000"/>
  <variable name="x_22_0" index="616" value="1.00000"/>
  <variable name="x_23_0" index="644" value="1.00000"/>
  <variable name="x_24_0" index="672" value="1.00000"/>
  <variable name="x_25_0" index="700" value="1.00000"/>
  <variable name="x_26_0" index="728" value="1.00000"/>
  <variable name="x_27_17" index="773" value="1.00000"/>
  <variable name="x_28_2" index="786" value="1.00000"/>
  <variable name="u_1" index="812" value="73.00000"/>
  <variable name="u_2" index="813" value="73.00000"/>
  <variable name="u_3" index="814" value="45.00000"/>
  <variable name="u_4" index="815" value="63.00000"/>
  <variable name="u_5" index="816" value="48.00000"/>
  <variable name="u_6" index="817" value="48.00000"/>
  <variable name="u_7" index="818" value="14.00000"/>
  <variable name="u_8" index="819" value="73.00000"/>
  <variable name="u_9" index="820" value="73.00000"/>
  <variable name="u_10" index="821" value="48.00000"/>
  <variable name="u_11" index="822" value="64.00000"/>
  <variable name="u_12" index="823" value="65.00000"/>
  <variable name="u_13" index="824" value="68.00000"/>
  <variable name="u_14" index="825" value="56.00000"/>
  <variable name="u_15" index="826" value="73.00000"/>
  <variable name="u_16" index="827" value="67.00000"/>
  <variable name="u_17" index="828" value="73.00000"/>
  <variable name="u_18" index="829" value="73.00000"/>
  <variable name="u_19" index="830" value="34.00000"/>
  <variable name="u_20" index="831" value="62.00000"/>
  <variable name="u_21" index="832" value="29.00000"/>
  <variable name="u_22" index="833" value="60.00000"/>
  <variable name="u_23" index="834" value="73.00000"/>
  <variable name="u_24" index="835" value="73.00000"/>
  <variable name="u_25" index="836" value="61.00000"/>
  <variable name="u_26" index="837" value="73.00000"/>
  <variable name="u_27" index="838" value="66.00000"/>
  <variable name="u_28" index="839" value="43.00000"/>
 </variables>
</CPLEXSolution>
